\ Model  -- The Multi Commodity Vehicle Transportation Problem -- 
\ LP format - for model browsing. Use MPS format to capture full model detail.
Minimize
  10 S1_D1_V - 0.2307692307692308 S1_D1_c1 - 0.0943396226415094 S1_D1_c2
   + 15 S1_D2_V - 0.3076923076923077 S1_D2_c1 - 0.3396226415094339 S1_D2_c2
   + 20 S1_D3_V - 0.4615384615384616 S1_D3_c1 - 0.5660377358490566 S1_D3_c2
   + 18 S2_D1_V - 0.2307692307692308 S2_D1_c1 - 0.0943396226415094 S2_D1_c2
   + 13 S2_D2_V - 0.3076923076923077 S2_D2_c1 - 0.3396226415094339 S2_D2_c2
   + 20 S2_D3_V - 0.4615384615384616 S2_D3_c1 - 0.5660377358490566 S2_D3_c2
   + 70.38538215041021 D1_c1_U + 70.38538215041021 D1_c2_U
   + 70.38538215041021 D2_c1_U + 70.38538215041021 D2_c2_U
   + 70.38538215041021 D3_c1_U + 70.38538215041021 D3_c2_U
   + 1647.532656023222 Constant
Subject To
 R0: S1_D1_c1 + S1_D2_c1 + S1_D3_c1 <= 820
 R1: S1_D1_c2 + S1_D2_c2 + S1_D3_c2 <= 1350
 R2: S2_D1_c1 + S2_D2_c1 + S2_D3_c1 <= 800
 R3: S2_D1_c2 + S2_D2_c2 + S2_D3_c2 <= 1650
 R4: S1_D1_c1 + S2_D1_c1 <= 300
 R5: S1_D1_c2 + S2_D1_c2 <= 250
 R6: S1_D2_c1 + S2_D2_c1 <= 400
 R7: S1_D2_c2 + S2_D2_c2 <= 900
 R8: S1_D3_c1 + S2_D3_c1 <= 600
 R9: S1_D3_c2 + S2_D3_c2 <= 1500
 R10: S1_D1_c1 + S1_D1_c2 + S1_D2_c1 + S1_D2_c2 + S1_D3_c1 + S1_D3_c2
   <= 750
 R11: S2_D1_c1 + S2_D1_c2 + S2_D2_c1 + S2_D2_c2 + S2_D3_c1 + S2_D3_c2
   <= 1050
 R12: S1_D1_V + S1_D2_V + S1_D3_V <= 5
 R13: S2_D1_V + S2_D2_V + S2_D3_V <= 7
 R14: S1_D1_V - 0.00666666666666667 S1_D1_c1 - 0.00666666666666667 S1_D1_c2
   >= 0
 R15: S1_D2_V - 0.00666666666666667 S1_D2_c1 - 0.00666666666666667 S1_D2_c2
   >= 0
 R16: S1_D3_V - 0.00666666666666667 S1_D3_c1 - 0.00666666666666667 S1_D3_c2
   >= 0
 R17: S2_D1_V - 0.00666666666666667 S2_D1_c1 - 0.00666666666666667 S2_D1_c2
   >= 0
 R18: S2_D2_V - 0.00666666666666667 S2_D2_c1 - 0.00666666666666667 S2_D2_c2
   >= 0
 R19: S2_D3_V - 0.00666666666666667 S2_D3_c1 - 0.00666666666666667 S2_D3_c2
   >= 0
 R20: S1_D1_V - 0.00666666666666667 S1_D1_c1 - 0.00666666666666667 S1_D1_c2
   <= 1
 R21: S1_D2_V - 0.00666666666666667 S1_D2_c1 - 0.00666666666666667 S1_D2_c2
   <= 1
 R22: S1_D3_V - 0.00666666666666667 S1_D3_c1 - 0.00666666666666667 S1_D3_c2
   <= 1
 R23: S2_D1_V - 0.00666666666666667 S2_D1_c1 - 0.00666666666666667 S2_D1_c2
   <= 1
 R24: S2_D2_V - 0.00666666666666667 S2_D2_c1 - 0.00666666666666667 S2_D2_c2
   <= 1
 R25: S2_D3_V - 0.00666666666666667 S2_D3_c1 - 0.00666666666666667 S2_D3_c2
   <= 1
 R26: D1_c1_U <= 27
 R27: D1_c2_U <= 41
 R28: D2_c1_U <= 88
 R29: D2_c2_U <= 78
 R30: D3_c1_U <= 30
 R31: D3_c2_U <= 43
 R32: S1_D1_c1 + S2_D1_c1 + 4 D1_c1_U >= 108
 R33: S1_D1_c2 + S2_D1_c2 + 10 D1_c2_U >= 410
 R34: S1_D2_c1 + S2_D2_c1 + 4 D2_c1_U >= 352
 R35: S1_D2_c2 + S2_D2_c2 + 10 D2_c2_U >= 780
 R36: S1_D3_c1 + S2_D3_c1 + 4 D3_c1_U >= 120
 R37: S1_D3_c2 + S2_D3_c2 + 10 D3_c2_U >= 430
Bounds
 Constant = 1
Generals
 S1_D1_V S1_D1_c1 S1_D1_c2 S1_D2_V S1_D2_c1 S1_D2_c2 S1_D3_V S1_D3_c1
 S1_D3_c2 S2_D1_V S2_D1_c1 S2_D1_c2 S2_D2_V S2_D2_c1 S2_D2_c2 S2_D3_V
 S2_D3_c1 S2_D3_c2 D1_c1_U D1_c2_U D2_c1_U D2_c2_U D3_c1_U D3_c2_U
End
